W=3;
H=3;

MAX_TIME=4;
MAX_TRACKS=3;

TARGET=(3,3);

TRAINS=[(1,1,DOWN)];

INIT_POS=[
(1,1,STRAIGHT_TD),
(2,2,EMPTY),
(3,3,STRAIGHT_RL),
];
TUNNEL_PAIRS=[];

GATES=[];
ACTIVATIONS=[];

DSWITCHES=[];

STATIONS=[];
